WARNING: for repeatability, setting FPU to use double precision
============================[ Problem Statistics ]=============================
|                                                                             |
|  Number of variables:            50                                         |
|  Number of clauses:             218                                         |
|  Parse time:                   0.00 s                                       |
|                                                                             |
============================[ Search Statistics ]==============================
| Conflicts |          ORIGINAL         |          LEARNT          | Progress |
|           |    Vars  Clauses Literals |    Limit  Clauses Lit/Cl |          |
===============================================================================
===============================================================================
restarts              : 1
conflicts             : 56             (38462 /sec)
decisions             : 58             (0.00 % random) (39835 /sec)
propagations          : 746            (512363 /sec)
conflict literals     : 215            (12.60 % deleted)
Memory used           : 20.00 MB
CPU time              : 0.001456 s

UNSATISFIABLE
